words_hard_train/8143.qaiger
aag 47 16 0 1 31
2
4
12
14
22
24
36
38
46
48
60
62
70
72
76
78
94
6 3 5
8 2 4
10 7 9
16 13 15
18 12 14
20 17 19
26 22 25
28 23 24
30 27 29
32 21 30
34 11 32
40 37 38
42 36 39
44 41 43
50 46 49
52 47 48
54 51 53
56 45 54
58 34 56
64 61 63
66 60 62
68 65 67
74 70 73
80 76 79
82 75 81
84 71 72
86 82 85
88 77 78
90 86 89
92 69 90
94 58 92
i0 2 y1[1]
i1 1 x1[6]
i2 2 y1[5]
i3 1 x1[2]
i4 2 y1[2]
i5 1 x1[5]
i6 2 y1[6]
i7 1 x1[1]
i8 2 y1[3]
i9 1 x1[4]
i10 2 y1[7]
i11 1 x1[0]
i12 2 y1[4]
i13 1 x1[3]
i14 2 y1[0]
i15 1 x1[7]
o0 bool[0]
c
simplified
  ==
    xor
      1 x1
      reverse
        2 y1
    add
      1
      1
