words_hard_train/8143.qaiger.qdimacs
p cnf 47 94
a 2 36 7 39 12 19 24 31 0
e 1 3 4 5 6 8 9 10 11 13 14 15 16 17 18 20 21 22 23 25 26 27 28 29 30 32 33 34 35 37 38 40 41 42 43 44 45 46 47 0
1 2 3 0
-1 -3 0
-2 -3 0
-1 -2 4 0
1 -4 0
2 -4 0
3 4 5 0
-3 -5 0
-4 -5 0
6 7 8 0
-6 -8 0
-7 -8 0
-6 -7 9 0
6 -9 0
7 -9 0
8 9 10 0
-8 -10 0
-9 -10 0
-11 12 13 0
11 -13 0
-12 -13 0
11 -12 14 0
-11 -14 0
12 -14 0
13 14 15 0
-13 -15 0
-14 -15 0
10 -15 16 0
-10 -16 0
15 -16 0
5 -16 17 0
-5 -17 0
16 -17 0
18 -19 20 0
-18 -20 0
19 -20 0
-18 19 21 0
18 -21 0
-19 -21 0
20 21 22 0
-20 -22 0
-21 -22 0
-23 24 25 0
23 -25 0
-24 -25 0
23 -24 26 0
-23 -26 0
24 -26 0
25 26 27 0
-25 -27 0
-26 -27 0
22 -27 28 0
-22 -28 0
27 -28 0
-17 -28 29 0
17 -29 0
28 -29 0
30 31 32 0
-30 -32 0
-31 -32 0
-30 -31 33 0
30 -33 0
31 -33 0
32 33 34 0
-32 -34 0
-33 -34 0
-35 36 37 0
35 -37 0
-36 -37 0
-38 39 40 0
38 -40 0
-39 -40 0
37 40 41 0
-37 -41 0
-40 -41 0
35 -36 42 0
-35 -42 0
36 -42 0
-41 42 43 0
41 -43 0
-42 -43 0
38 -39 44 0
-38 -44 0
39 -44 0
-43 44 45 0
43 -45 0
-44 -45 0
34 -45 46 0
-34 -46 0
45 -46 0
-29 -46 47 0
29 -47 0
46 -47 0
47 0
